c colouring generated by benchmark framework
p edge 128 1170
v 1 6
v 2 14
v 3 1
v 4 2
v 5 0
v 6 5
v 7 15
v 8 3
v 9 7
v 10 10
v 11 7
v 12 3
v 13 4
v 14 2
v 15 7
v 16 2
v 17 4
v 18 5
v 19 6
v 20 9
v 21 4
v 22 5
v 23 3
v 24 11
v 25 19
v 26 0
v 27 6
v 28 11
v 29 5
v 30 8
v 31 1
v 32 1
v 33 0
v 34 2
v 35 1
v 36 6
v 37 2
v 38 4
v 39 7
v 40 1
v 41 15
v 42 3
v 43 0
v 44 0
v 45 3
v 46 14
v 47 0
v 48 2
v 49 6
v 50 2
v 51 3
v 52 4
v 53 13
v 54 3
v 55 2
v 56 6
v 57 3
v 58 18
v 59 1
v 60 7
v 61 2
v 62 5
v 63 5
v 64 4
v 65 1
v 66 6
v 67 1
v 68 8
v 69 7
v 70 6
v 71 1
v 72 8
v 73 12
v 74 5
v 75 12
v 76 10
v 77 6
v 78 9
v 79 3
v 80 4
v 81 0
v 82 1
v 83 10
v 84 3
v 85 6
v 86 0
v 87 3
v 88 7
v 89 2
v 90 8
v 91 9
v 92 13
v 93 17
v 94 12
v 95 8
v 96 0
v 97 0
v 98 5
v 99 14
v 100 1
v 101 8
v 102 7
v 103 7
v 104 8
v 105 2
v 106 0
v 107 15
v 108 0
v 109 9
v 110 1
v 111 2
v 112 1
v 113 5
v 114 4
v 115 2
v 116 16
v 117 6
v 118 3
v 119 6
v 120 4
v 121 0
v 122 7
v 123 1
v 124 3
v 125 10
v 126 0
v 127 6
v 128 2
